NAME : KROB99A.25631.tour
COMMENT : Cost = 0_25631
COMMENT : Found by LKH [Keld Helsgaun] Sun Sep 17 16:52:41 2017
TYPE : TOUR
DIMENSION : 99
TOUR_SECTION
1
94
97
12
45
9
24
33
71
36
64
78
55
61
5
66
39
38
69
52
72
84
10
67
48
85
37
19
79
29
74
68
25
99
80
46
53
49
16
2
77
44
17
40
43
91
95
35
18
23
21
22
87
54
76
13
62
30
47
50
81
41
14
63
32
15
6
82
4
65
73
59
86
88
42
51
57
83
7
56
93
34
60
26
70
58
75
96
98
31
28
8
90
27
92
11
3
20
89
-1
EOF
